100
128
25
34
21
30
40
44
35
13
36
6
63
59
30
51
26
56
20
15
42
21
14
64
11
5
15
61
40
14
62
52
26
12
19
6
24
50
10
10
48
10
11
22
18
60
15
50
25
33
16
38
42
64
22
33
53
56
23
35
37
51
26
45
41
34
50
24
23
64
16
32
14
41
18
34
25
60
24
21
40
16
24
39
24
16
33
5
48
2
63
32
56
39
35
42
51
29
23
47
29
61